1 8
2 2
3 8
4 2
5 2
6 17
7 2
8 11
9 6
10 6
11 3
12 20
13 3
14 7
15 21
16 7
17 15
18 19
19 16
20 14
21 13
22 6
23 20
24 9
25 13
26 3
27 2
28 11
29 11
30 22
31 22
32 1
33 10
34 10
35 22
36 12
37 10
38 10
39 6
40 1
41 10
42 2
43 1
44 15
45 11
46 11
47 15
48 5
49 18
50 8
51 20
52 13
53 13
54 13
55 20
56 14
57 14
58 20
59 12
60 13
61 20
62 16
63 17
64 5
65 9
66 9
67 19
68 19
69 2
70 21
71 12
72 12
73 3
74 17
75 7
76 15
77 17
78 16
79 5
80 15
81 5
82 5
83 1
84 1
85 15
86 19
87 19
88 8
89 10
90 9
91 4
92 19
93 4
94 8
95 13
96 9
97 21
98 7
99 13
100 21
101 14
102 22
103 4
104 4
105 4
106 15
107 14
108 19
109 19
110 19
111 19
112 13
113 21
114 21
115 21
116 12
117 7
118 22
119 4
120 11
121 15
122 14
123 3
124 4
125 13
126 12
127 11
128 17
129 17
130 1
131 1
132 1
133 10
134 16
135 16
136 2
137 2
138 2
139 20
140 7
141 8
142 20
143 7
144 12
145 16
146 18
147 16
148 16
149 12
150 11
151 12
152 6
153 7
154 7
155 18
156 18
157 17
158 5
159 4
160 10
161 4
162 4
163 18
164 19
165 14
166 3
167 2
168 9
169 8
170 9
171 14
172 17
173 16
174 15
175 22
176 15
177 5
178 5
179 10
180 2
181 12
